# Node Net
1740   1
3572   1
2461   1
1261   1
3597   1
3546   2
420   2
3555   2
660   2
 26   2
  7   3
3596   3
3592   3
 14   3
 22   3
3587   4
 35   4
 40   4
2160   4
1021   5
3000   5
 47   5
3240   6
3584   6
3421   6
2520   7
  1   7
3573   7
3120   8
1260   8
2641   8
 45   9
3300   9
2340   9
  3  10
3541  10
1201  11
 43  11
